swarm_exploration/utils/lkh_mtsp_solver/resource/amtsp3_2.atsp
NAME : pairopt
TYPE : ACVRP
DIMENSION : 5
EDGE_WEIGHT_TYPE : EXPLICIT
EDGE_WEIGHT_FORMAT : FULL_MATRIX
CAPACITY : 509
VEHICLES : 2
EDGE_WEIGHT_SECTION
100000 -100000 -100000 100000 100000 
100000 100000 1000000 1809 2092 
100000 1000000 100000 536 419 
0 0 0 100000 214 
0 0 0 214 100000 
DEMAND_SECTION
1 0
2 0
3 0
4 270
5 408
DEPOT_SECTION
1
EOF