swarm_exploration/utils/lkh_mtsp_solver/resource/amtsp3_2.tour
NAME : pairopt.-197772.tour
COMMENT : Length = -197772
COMMENT : Found by LKH-3 [Keld Helsgaun] Thu Apr 13 10:23:50 2023
TYPE : TOUR
DIMENSION : 6
TOUR_SECTION
1
3
5
6
2
4
-1
EOF
